# vtk DataFile Version 2.0
geometrically linear steady-state plane stress analysis
ASCII

DATASET UNSTRUCTURED_GRID
POINTS 22 double
  0.000000  1.000000  0.000000
  1.015296  0.977053  0.000000
  0.000000  0.000000  0.000000
  0.987287  -0.015195  0.000000
  2.028230  0.936894  0.000000
  1.976788  -0.063554  0.000000
  3.035626  0.873954  0.000000
  2.969045  -0.126638  0.000000
  4.041088  0.798217  0.000000
  3.963220  -0.202283  0.000000
  5.044979  0.713324  0.000000
  4.959028  -0.287076  0.000000
  6.047571  0.622214  0.000000
  5.956203  -0.378086  0.000000
  7.049129  0.527287  0.000000
  6.954478  -0.472913  0.000000
  8.049921  0.430411  0.000000
  7.953586  -0.569689  0.000000
  9.050213  0.332918  0.000000
  8.953260  -0.667084  0.000000
  10.050275  0.235620  0.000000
  9.953214  -0.764333  0.000000

CELLS  20  80
  3  2  3  0
  3  17  19  18
  3  10  8  9
  3  18  19  20
  3  9  8  7
  3  9  11  10
  3  10  11  12
  3  18  16  17
  3  17  16  15
  3  1  0  3
  3  1  3  4
  3  5  7  6
  3  6  7  8
  3  21  20  19
  3  6  4  5
  3  5  4  3
  3  13  15  14
  3  14  15  16
  3  14  12  13
  3  13  12  11

CELL_TYPES 20
5
5
5
5
5
5
5
5
5
5
5
5
5
5
5
5
5
5
5
5

CELL_DATA 20
TENSORS strain double
  -0.012713  -0.007598  0.000000
  -0.007598  0.000000  0.000000
  0.000000  0.000000  0.000000

  -0.000326  -0.000221  0.000000
  -0.000221  0.000002  0.000000
  0.000000  0.000000  0.000000

  0.003892  -0.003512  0.000000
  -0.003512  0.000500  0.000000
  0.000000  0.000000  0.000000

  0.000062  -0.000173  0.000000
  -0.000173  0.000002  0.000000
  0.000000  0.000000  0.000000

  -0.005826  0.001112  0.000000
  0.001112  0.000500  0.000000
  0.000000  0.000000  0.000000

  -0.004192  0.000579  0.000000
  0.000579  0.000400  0.000000
  0.000000  0.000000  0.000000

  0.002592  -0.002579  0.000000
  -0.002579  0.000400  0.000000
  0.000000  0.000000  0.000000

  0.000292  -0.000579  0.000000
  -0.000579  0.000100  0.000000
  0.000000  0.000000  0.000000

  -0.000892  -0.000221  0.000000
  -0.000221  0.000100  0.000000
  0.000000  0.000000  0.000000

  0.015296  0.002531  0.000000
  0.002531  -0.007751  0.000000
  0.000000  0.000000  0.000000

  0.012934  -0.006075  0.000000
  -0.006075  -0.007751  0.000000
  0.000000  0.000000  0.000000

  -0.007743  0.001749  0.000000
  0.001749  0.000593  0.000000
  0.000000  0.000000  0.000000

  0.005461  -0.004578  0.000000
  -0.004578  0.000593  0.000000
  0.000000  0.000000  0.000000

  -0.000047  -0.000094  0.000000
  -0.000094  -0.000047  0.000000
  0.000000  0.000000  0.000000

  0.007396  -0.005749  0.000000
  -0.005749  0.000448  0.000000
  0.000000  0.000000  0.000000

  -0.010499  0.001542  0.000000
  0.001542  0.000448  0.000000
  0.000000  0.000000  0.000000

  -0.001725  -0.000087  0.000000
  -0.000087  0.000200  0.000000
  0.000000  0.000000  0.000000

  0.000792  -0.001112  0.000000
  -0.001112  0.000200  0.000000
  0.000000  0.000000  0.000000

  0.001558  -0.001779  0.000000
  -0.001779  0.000300  0.000000
  0.000000  0.000000  0.000000

  -0.002825  0.000179  0.000000
  0.000179  0.000300  0.000000
  0.000000  0.000000  0.000000
POINT_DATA 22
VECTORS displacements double
  0.000000  0.000000  0.000000
  0.015296  -0.022947  0.000000
  0.000000  0.000000  0.000000
  -0.012713  -0.015195  0.000000
  0.028230  -0.063106  0.000000
  -0.023212  -0.063554  0.000000
  0.035626  -0.126046  0.000000
  -0.030955  -0.126638  0.000000
  0.041088  -0.201783  0.000000
  -0.036780  -0.202283  0.000000
  0.044979  -0.286676  0.000000
  -0.040972  -0.287076  0.000000
  0.047571  -0.377786  0.000000
  -0.043797  -0.378086  0.000000
  0.049129  -0.472713  0.000000
  -0.045522  -0.472913  0.000000
  0.049921  -0.569589  0.000000
  -0.046414  -0.569689  0.000000
  0.050213  -0.667082  0.000000
  -0.046740  -0.667084  0.000000
  0.050275  -0.764380  0.000000
  -0.046786  -0.764333  0.000000

CELL_DATA 20
TENSORS stress double
  -143016.895412  -56983.104588  0.000000
  -56983.104588  -47671.821748  0.000000
  0.000000  0.000000  0.000000


  -3657.665588  -1657.665588  0.000000
  -1657.665588  -1203.601844  0.000000
  0.000000  0.000000  0.000000


  45656.391072  -26343.608928  0.000000
  -26343.608928  20216.440877  0.000000
  0.000000  0.000000  0.000000


  704.503835  -1295.496165  0.000000
  -1295.496165  250.440090  0.000000
  0.000000  0.000000  0.000000


  -63662.912916  8337.087084  0.000000
  8337.087084  -16222.962721  0.000000
  0.000000  0.000000  0.000000


  -45656.391072  4343.608928  0.000000
  4343.608928  -11218.727791  0.000000
  0.000000  0.000000  0.000000


  30656.217208  -19343.782792  0.000000
  -19343.782792  14218.553927  0.000000
  0.000000  0.000000  0.000000


  3657.665588  -4342.334412  0.000000
  -4342.334412  2219.661736  0.000000
  0.000000  0.000000  0.000000


  -9656.279400  -1656.279400  0.000000
  -1656.279400  -2218.275547  0.000000
  0.000000  0.000000  0.000000


  143016.895412  18983.104588  0.000000
  18983.104588  -29843.054844  0.000000
  0.000000  0.000000  0.000000


  116437.177541  -45562.822459  0.000000
  -45562.822459  -38702.872202  0.000000
  0.000000  0.000000  0.000000


  -84885.199387  13114.800613  0.000000
  13114.800613  -22368.914373  0.000000
  0.000000  0.000000  0.000000


  63662.912916  -34337.087084  0.000000
  -34337.087084  27146.627901  0.000000
  0.000000  0.000000  0.000000


  -704.503835  -704.503835  0.000000
  -704.503835  -704.503835  0.000000
  0.000000  0.000000  0.000000


  84885.199387  -43114.800613  0.000000
  -43114.800613  32777.404874  0.000000
  0.000000  0.000000  0.000000


  -116437.177541  11562.822459  0.000000
  11562.822459  -34329.383028  0.000000
  0.000000  0.000000  0.000000


  -18656.227731  -656.227731  0.000000
  -656.227731  -4218.678167  0.000000
  0.000000  0.000000  0.000000


  9656.279400  -8343.720600  0.000000
  -8343.720600  5218.729835  0.000000
  0.000000  0.000000  0.000000


  18656.227731  -13343.772269  0.000000
  -13343.772269  9218.663897  0.000000
  0.000000  0.000000  0.000000


  -30656.217208  1343.782792  0.000000
  1343.782792  -7218.653374  0.000000
  0.000000  0.000000  0.000000

